; benchmark generated from python API
(set-info :status unknown)
(declare-fun x4 () Real)
(declare-fun x3 () Real)
(declare-fun bool.b20 () Bool)
(declare-fun bool.b19 () Bool)
(declare-fun bool.b18 () Bool)
(declare-fun bool.b17 () Bool)
(assert
 (forall ((?lambda Real) )(let (($x30758 (and (<= (* 1.0 (+ x3 (* (- 1.0) ?lambda))) 0.0) (not (<= (* 1.0 (+ x4 (* 40.0 ?lambda))) 4820.0)))))
 (let (($x33926 (exists ((?lambdaprime Real) )(! (let (($x13794 (not (and bool.b20 (<= (* 1.0 (+ x3 (* (- 1.0) ?lambdaprime))) 20.0)))))
 (let (($x9316 (not (<= (* 1.0 (+ x3 (* (- 1.0) ?lambdaprime))) 33.0))))
 (let (($x33893 (and $x9316 (not (<= (* (- 1.0) (+ x4 (* 40.0 ?lambdaprime))) (- 4910.0))))))
 (let (($x29315 (and $x9316 (not (<= (* (- 1.0) (+ x4 (* 40.0 ?lambdaprime))) (- 4500.0))))))
 (let (($x11282 (and (not (<= (* (- 1.0) (+ x4 (* 40.0 ?lambdaprime))) (- 4100.0))) $x9316)))
 (let (($x3860 (and (not (and bool.b17 (not $x11282))) (not (and bool.b18 (not $x29315))))))
 (and (and (<= 0.0 ?lambdaprime) (<= ?lambdaprime ?lambda)) (not (and (and $x3860 (not (and bool.b19 (not $x33893)))) $x13794))))))))) :qid k!21))
 ))
 (or (or $x33926 (< ?lambda 0.0)) (not $x30758)))))
 )
(check-sat)
